data;

param N := 10;

param SCORE : 1 2 3 4 5 6 7 8 9 10 :=
1 10 7 4 1 10 10 9 1 4 7
2 8 9 1 6 2 4 2 4 1 8
3 3 5 3 1 1 3 9 8 4 6
4 4 3 8 7 2 3 4 7 10 9
5 6 10 6 3 6 7 3 1 5 6
6 7 10 2 10 8 10 4 6 10 6
7 7 6 5 2 7 2 10 5 5 2
8 9 10 4 6 4 4 2 9 9 8
9 1 6 7 4 1 8 6 9 9 1
10 1 10 10 4 2 1 8 3 6 10;

end;
